webassembly/ejemplos_dzn/folder6_json_71.dzn
TERM = { '.', 'in_1', 'local_0', 'local_1', 'in_6', 'in_2', 'in_4', 'in_3', 'in_9', 'in_8', 'in_7', 'in_5', 'in_0'};
null = '.';
s = 6;
n = 15;
ndeps = 3;
max_registers_sz = 5;
NR = 2;
registers = [|'local_0', 'in_9', |'local_1', 'in_9'|];
dependencies = [|'i32.store8_0', 'i32.store16_1', |'i32.store16_1', 'call[function_index(0)]_2', |'call[function_index(0)]_2', 'i32.store_3'|];
GET_ENUM = { GET1, GET2, GET3, GET4, GET5, GET6, GET7};
SET_ENUM = { SET1, SET2, SET3, SET4, SET5, SET6, SET7};
TEE_ENUM = { TEE1, TEE2, TEE3, TEE4, TEE5, TEE6, TEE7};
N = 4;
OP = { 'call[function_index(0)]_2', 'i32.store8_0', 'i32.store16_1', 'i32.store_3' };
in_ops = [3, 2, 2, 2 ];
out_ops = [0, 0, 0, 0 ];
in1 = ['in_4', 'in_0', 'in_2', 'in_7' ];
in2 = ['in_5', 'in_1', 'in_3', 'in_8' ];
in3 = ['in_6', '.', '.', '.' ];
out1 = ['.', '.', '.', '.' ];
out2 = ['.', '.', '.', '.' ];
out3 = ['.', '.', '.', '.' ];
comm = [false, false, false, false ];
gas = [1, 1, 1, 1 ];
sz = [1, 1, 1, 1 ];
stor = [true, true, true, true ];
lb = [ 1, 1, 1, 1 ];
ub = [ 6, 6, 6, 6 ];
startstack = [ 'in_0', 'in_1', 'in_2', 'in_3', 'in_4', 'in_5', 'in_6', 'in_7', 'in_8', 'in_9', null, null, null, null, null ];
endstack = [ 'in_9', null, null, null, null, null, null, null, null, null, null, null, null, null, null ];
